Maximize
  0.0183559167679348 Z_348_0_0 + 0.4015825733308446 Z_348_0_1
   + 0.00353725732246781 Z_348_0_2 + 0.00401930980229073 Z_348_0_3
   + 0.4725049427764619 Z_348_0_4 + 0.0486915337338972 Z_478_0_0
   + 0.8241164163573075 Z_478_0_1 + 0.00107870890073318 Z_478_0_2
   + 0.0123113765353571 Z_478_0_3 + 0.0138019644727048 Z_478_0_4
   + 0.0229780181964852 Z_478_3_0 + 0.1616403033101012 Z_478_3_1
   + 0.0299162947991332 Z_478_3_2 + 0.0113937210049559 Z_478_3_3
   + 0.6740716626893246 Z_478_3_4 + 0.00790642057634661 Z_478_2_0
   + 0.0130700021314052 Z_478_2_1 + 0.00587608139837274 Z_478_2_2
   + 5.5511251442426747e-04 Z_478_2_3 + 0.8725923833794511 Z_478_2_4
   + 0.00558352857490041 Z_478_6_0 + 0.00422739365434587 Z_478_6_1
   + 0.00829256790730485 Z_478_6_2 + 0.0089021518636122 Z_478_6_3
   + 0.8729943579998367 Z_478_6_4 + 0.00216206466292593 Z_478_7_0
   + 0.4138405052590161 Z_478_7_1 + 0.00389893913931152 Z_478_7_2
   + 0.00850919926313602 Z_478_7_3 + 0.4715892916756106 Z_478_7_4
   + 8.63568e-05 Z_478_1_0 + 0.00185729314424662 Z_478_1_1
   + 0.0102469889317501 Z_478_1_2 + 2.8623417385689292e-04 Z_478_1_3
   + 0.8875231269317494 Z_478_1_4 + 0.0368386642595446 Z_478_8_0
   + 0.2825167617134656 Z_478_8_1 + 0.00461993050790001 Z_478_8_2
   + 0.064373135077269 Z_478_8_3 + 0.5116515084418207 Z_478_8_4
   + 0.0229780181964852 Z_478_5_0 + 0.1616403033101012 Z_478_5_1
   + 0.0299162947991332 Z_478_5_2 + 0.0113937210049559 Z_478_5_3
   + 0.6740716626893246 Z_478_5_4 + 0.00430857 Z_478_4_0
   + 0.0127647486832452 Z_478_4_1 + 0.0321079702427407 Z_478_4_2
   + 0.00346037029467704 Z_478_4_3 + 0.8473583407040207 Z_478_4_4 + [
   0.0682459975001963 Z_348_0_0 * Z_478_0_0
   + 0.0682459975001963 Z_348_0_0 * Z_478_3_0
   + 0.085207100591716 Z_348_0_0 * Z_478_6_0
   + 0.085207100591716 Z_348_0_0 * Z_478_1_0
   + 0.0316344096655743 Z_348_0_0 * Z_478_8_0
   + 0.00828139734716598 Z_348_0_0 * Z_478_5_0
   + 3.7331180880031679e-04 Z_348_0_0 * Z_478_4_0
   + 0.0682459975001963 Z_348_0_1 * Z_478_0_1
   + 0.0682459975001963 Z_348_0_1 * Z_478_3_1
   + 0.085207100591716 Z_348_0_1 * Z_478_6_1
   + 0.085207100591716 Z_348_0_1 * Z_478_1_1
   + 0.0316344096655743 Z_348_0_1 * Z_478_8_1
   + 0.00828139734716598 Z_348_0_1 * Z_478_5_1
   + 3.7331180880031679e-04 Z_348_0_1 * Z_478_4_1
   + 0.0682459975001963 Z_348_0_2 * Z_478_0_2
   + 0.0682459975001963 Z_348_0_2 * Z_478_3_2
   + 0.085207100591716 Z_348_0_2 * Z_478_6_2
   + 0.085207100591716 Z_348_0_2 * Z_478_1_2
   + 0.0316344096655743 Z_348_0_2 * Z_478_8_2
   + 0.00828139734716598 Z_348_0_2 * Z_478_5_2
   + 3.7331180880031679e-04 Z_348_0_2 * Z_478_4_2
   + 0.0682459975001963 Z_348_0_3 * Z_478_0_3
   + 0.0682459975001963 Z_348_0_3 * Z_478_3_3
   + 0.085207100591716 Z_348_0_3 * Z_478_6_3
   + 0.085207100591716 Z_348_0_3 * Z_478_1_3
   + 0.0316344096655743 Z_348_0_3 * Z_478_8_3
   + 0.00828139734716598 Z_348_0_3 * Z_478_5_3
   + 3.7331180880031679e-04 Z_348_0_3 * Z_478_4_3
   + 0.0682459975001963 Z_348_0_4 * Z_478_0_4
   + 0.0682459975001963 Z_348_0_4 * Z_478_3_4
   + 0.085207100591716 Z_348_0_4 * Z_478_6_4
   + 0.085207100591716 Z_348_0_4 * Z_478_1_4
   + 0.0316344096655743 Z_348_0_4 * Z_478_8_4
   + 0.00828139734716598 Z_348_0_4 * Z_478_5_4
   + 3.7331180880031679e-04 Z_348_0_4 * Z_478_4_4 ] / 2 
Subject To
 constraint1_3480: Z_348_0_0 + Z_348_0_1 + Z_348_0_2 + Z_348_0_3
   + Z_348_0_4 <= 1
 constraint1_4780: Z_478_0_0 + Z_478_0_1 + Z_478_0_2 + Z_478_0_3
   + Z_478_0_4 <= 1
 constraint1_4783: Z_478_3_0 + Z_478_3_1 + Z_478_3_2 + Z_478_3_3
   + Z_478_3_4 <= 1
 constraint1_4782: Z_478_2_0 + Z_478_2_1 + Z_478_2_2 + Z_478_2_3
   + Z_478_2_4 <= 1
 constraint1_4786: Z_478_6_0 + Z_478_6_1 + Z_478_6_2 + Z_478_6_3
   + Z_478_6_4 <= 1
 constraint1_4787: Z_478_7_0 + Z_478_7_1 + Z_478_7_2 + Z_478_7_3
   + Z_478_7_4 <= 1
 constraint1_4781: Z_478_1_0 + Z_478_1_1 + Z_478_1_2 + Z_478_1_3
   + Z_478_1_4 <= 1
 constraint1_4788: Z_478_8_0 + Z_478_8_1 + Z_478_8_2 + Z_478_8_3
   + Z_478_8_4 <= 1
 constraint1_4785: Z_478_5_0 + Z_478_5_1 + Z_478_5_2 + Z_478_5_3
   + Z_478_5_4 <= 1
 constraint1_4784: Z_478_4_0 + Z_478_4_1 + Z_478_4_2 + Z_478_4_3
   + Z_478_4_4 <= 1
 constraint2_3480: Z_348_0_0 <= 1
 constraint2_3481: Z_348_0_1 <= 1
 constraint2_3482: Z_348_0_2 <= 1
 constraint2_3483: Z_348_0_3 <= 1
 constraint2_4780: Z_478_0_0 + Z_478_3_0 + Z_478_2_0 + Z_478_6_0
   + Z_478_7_0 + Z_478_1_0 + Z_478_8_0 + Z_478_5_0 + Z_478_4_0 <= 1
 constraint2_4781: Z_478_0_1 + Z_478_3_1 + Z_478_2_1 + Z_478_6_1
   + Z_478_7_1 + Z_478_1_1 + Z_478_8_1 + Z_478_5_1 + Z_478_4_1 <= 1
 constraint2_4782: Z_478_0_2 + Z_478_3_2 + Z_478_2_2 + Z_478_6_2
   + Z_478_7_2 + Z_478_1_2 + Z_478_8_2 + Z_478_5_2 + Z_478_4_2 <= 1
 constraint2_4783: Z_478_0_3 + Z_478_3_3 + Z_478_2_3 + Z_478_6_3
   + Z_478_7_3 + Z_478_1_3 + Z_478_8_3 + Z_478_5_3 + Z_478_4_3 <= 1
Bounds
Binaries
 Z_348_0_0 Z_348_0_1 Z_348_0_2 Z_348_0_3 Z_348_0_4 Z_478_0_0 Z_478_0_1
 Z_478_0_2 Z_478_0_3 Z_478_0_4 Z_478_3_0 Z_478_3_1 Z_478_3_2 Z_478_3_3
 Z_478_3_4 Z_478_2_0 Z_478_2_1 Z_478_2_2 Z_478_2_3 Z_478_2_4 Z_478_6_0
 Z_478_6_1 Z_478_6_2 Z_478_6_3 Z_478_6_4 Z_478_7_0 Z_478_7_1 Z_478_7_2
 Z_478_7_3 Z_478_7_4 Z_478_1_0 Z_478_1_1 Z_478_1_2 Z_478_1_3 Z_478_1_4
 Z_478_8_0 Z_478_8_1 Z_478_8_2 Z_478_8_3 Z_478_8_4 Z_478_5_0 Z_478_5_1
 Z_478_5_2 Z_478_5_3 Z_478_5_4 Z_478_4_0 Z_478_4_1 Z_478_4_2 Z_478_4_3
 Z_478_4_4
End
